atom_style       hybrid dipole sphere
atom_modify      map array
neigh_modify     delay 2 every 2 check no
units            lj
timestep         0.00001
newton           on

pair_style	 zero 0.0
read_data        data.dipole


dump		 1 all custom 1 dump.lammpstrj id &
		 type x y z xu yu zu mux muy muz
dump_modify	 1 format float %e

run 0