atom_style       hybrid dipole sphere
atom_modify      map array
neigh_modify     delay 2 every 2 check no
units            lj
newton           on

pair_style	 zero 0.0
read_data        data.dipole

comm_modify mode single cutoff 2.0

compute myhistos all rdf/dipole 5 cutoff 1.5

fix myhistos all ave/time 1 1 1 c_myhistos[*] file &
    histos.rdf mode vector format %e



rerun dump.lammpstrj dump x y mux muy