units          lj
dimension      2
newton         off

atom_style     atomic


read_data      ../data2d.3bod

comm_modify    cutoff 1.6

neighbor 0.1 bin

compute my3 all threebody/angle/cos 15 10 skip 3 cutoff 1.3


fix threebody all ave/time 1 1 1 c_my3[*] mode vector file out2d.3bod

run 0